1 1 0
1 2 26
1 3 26
1 4 26
1 5 10
1 6 60
1 7 60
1 8 60
1 9 68
1 10 68
1 11 68
1 12 68
1 13 92
1 14 92
1 15 92
1 16 116
1 17 116
1 18 116
1 19 164
1 20 164
1 21 164
1 22 84
1 23 36
1 24 36
1 25 42
1 26 46
1 27 120
1 28 27
1 29 27
1 30 61
1 31 61
1 32 69
1 33 69
1 34 93
1 35 93
1 36 21
1 37 27
1 38 31
1 39 372
1 40 372
1 41 446
1 42 446
1 43 446
2 1 36
2 2 0
2 3 0
2 4 0
2 5 36
2 6 6
2 7 6
2 8 6
2 9 10
2 10 10
2 11 10
2 12 10
2 13 12
2 14 12
2 15 12
2 16 16
2 17 16
2 18 16
2 19 96
2 20 96
2 21 96
2 22 64
2 23 22
2 24 22
2 25 16
2 26 22
2 27 30
2 28 1
2 29 1
2 30 7
2 31 7
2 32 11
2 33 11
2 34 13
2 35 13
2 36 7
2 37 1
2 38 7
2 39 348
2 40 348
2 41 356
2 42 356
2 43 356
3 1 36
3 2 0
3 3 0
3 4 0
3 5 36
3 6 6
3 7 6
3 8 6
3 9 10
3 10 10
3 11 10
3 12 10
3 13 12
3 14 12
3 15 12
3 16 16
3 17 16
3 18 16
3 19 96
3 20 96
3 21 96
3 22 64
3 23 22
3 24 22
3 25 16
3 26 22
3 27 30
3 28 1
3 29 1
3 30 7
3 31 7
3 32 11
3 33 11
3 34 13
3 35 13
3 36 7
3 37 1
3 38 7
3 39 348
3 40 348
3 41 356
3 42 356
3 43 356
4 1 36
4 2 0
4 3 0
4 4 0
4 5 36
4 6 6
4 7 6
4 8 6
4 9 10
4 10 10
4 11 10
4 12 10
4 13 12
4 14 12
4 15 12
4 16 16
4 17 16
4 18 16
4 19 96
4 20 96
4 21 96
4 22 64
4 23 22
4 24 22
4 25 16
4 26 22
4 27 30
4 28 1
4 29 1
4 30 7
4 31 7
4 32 11
4 33 11
4 34 13
4 35 13
4 36 7
4 37 1
4 38 7
4 39 348
4 40 348
4 41 356
4 42 356
4 43 356
5 1 10
5 2 26
5 3 26
5 4 26
5 5 0
5 6 26
5 7 26
5 8 26
5 9 30
5 10 30
5 11 30
5 12 30
5 13 32
5 14 32
5 15 32
5 16 36
5 17 36
5 18 36
5 19 116
5 20 116
5 21 116
5 22 84
5 23 46
5 24 46
5 25 42
5 26 36
5 27 50
5 28 27
5 29 27
5 30 27
5 31 27
5 32 31
5 33 31
5 34 33
5 35 33
5 36 31
5 37 27
5 38 21
5 39 362
5 40 362
5 41 376
5 42 376
5 43 376
6 1 74
6 2 6
6 3 6
6 4 6
6 5 36
6 6 0
6 7 0
6 8 0
6 9 4
6 10 4
6 11 4
6 12 4
6 13 6
6 14 6
6 15 6
6 16 12
6 17 12
6 18 12
6 19 24
6 20 24
6 21 24
6 22 112
6 23 60
6 24 60
6 25 22
6 26 22
6 27 26
6 28 7
6 29 7
6 30 1
6 31 1
6 32 5
6 33 5
6 34 7
6 35 7
6 36 45
6 37 7
6 38 7
6 39 348
6 40 348
6 41 352
6 42 352
6 43 352
7 1 74
7 2 6
7 3 6
7 4 6
7 5 36
7 6 0
7 7 0
7 8 0
7 9 4
7 10 4
7 11 4
7 12 4
7 13 6
7 14 6
7 15 6
7 16 12
7 17 12
7 18 12
7 19 24
7 20 24
7 21 24
7 22 112
7 23 60
7 24 60
7 25 22
7 26 22
7 27 26
7 28 7
7 29 7
7 30 1
7 31 1
7 32 5
7 33 5
7 34 7
7 35 7
7 36 45
7 37 7
7 38 7
7 39 348
7 40 348
7 41 352
7 42 352
7 43 352
8 1 74
8 2 6
8 3 6
8 4 6
8 5 36
8 6 0
8 7 0
8 8 0
8 9 4
8 10 4
8 11 4
8 12 4
8 13 6
8 14 6
8 15 6
8 16 12
8 17 12
8 18 12
8 19 24
8 20 24
8 21 24
8 22 112
8 23 60
8 24 60
8 25 22
8 26 22
8 27 26
8 28 7
8 29 7
8 30 1
8 31 1
8 32 5
8 33 5
8 34 7
8 35 7
8 36 45
8 37 7
8 38 7
8 39 348
8 40 348
8 41 352
8 42 352
8 43 352
9 1 82
9 2 10
9 3 10
9 4 10
9 5 40
9 6 4
9 7 4
9 8 4
9 9 0
9 10 0
9 11 0
9 12 0
9 13 12
9 14 12
9 15 12
9 16 16
9 17 16
9 18 16
9 19 24
9 20 24
9 21 24
9 22 112
9 23 68
9 24 68
9 25 26
9 26 26
9 27 30
9 28 11
9 29 11
9 30 5
9 31 5
9 32 1
9 33 1
9 34 13
9 35 13
9 36 53
9 37 11
9 38 11
9 39 352
9 40 352
9 41 356
9 42 356
9 43 356
10 1 82
10 2 10
10 3 10
10 4 10
10 5 40
10 6 4
10 7 4
10 8 4
10 9 0
10 10 0
10 11 0
10 12 0
10 13 12
10 14 12
10 15 12
10 16 16
10 17 16
10 18 16
10 19 24
10 20 24
10 21 24
10 22 112
10 23 68
10 24 68
10 25 26
10 26 26
10 27 30
10 28 11
10 29 11
10 30 5
10 31 5
10 32 1
10 33 1
10 34 13
10 35 13
10 36 53
10 37 11
10 38 11
10 39 352
10 40 352
10 41 356
10 42 356
10 43 356
11 1 82
11 2 10
11 3 10
11 4 10
11 5 40
11 6 4
11 7 4
11 8 4
11 9 0
11 10 0
11 11 0
11 12 0
11 13 12
11 14 12
11 15 12
11 16 16
11 17 16
11 18 16
11 19 24
11 20 24
11 21 24
11 22 112
11 23 68
11 24 68
11 25 26
11 26 26
11 27 30
11 28 11
11 29 11
11 30 5
11 31 5
11 32 1
11 33 1
11 34 13
11 35 13
11 36 53
11 37 11
11 38 11
11 39 352
11 40 352
11 41 356
11 42 356
11 43 356
12 1 82
12 2 10
12 3 10
12 4 10
12 5 40
12 6 4
12 7 4
12 8 4
12 9 0
12 10 0
12 11 0
12 12 0
12 13 12
12 14 12
12 15 12
12 16 16
12 17 16
12 18 16
12 19 24
12 20 24
12 21 24
12 22 112
12 23 68
12 24 68
12 25 26
12 26 26
12 27 30
12 28 11
12 29 11
12 30 5
12 31 5
12 32 1
12 33 1
12 34 13
12 35 13
12 36 53
12 37 11
12 38 11
12 39 352
12 40 352
12 41 356
12 42 356
12 43 356
13 1 106
13 2 12
13 3 12
13 4 12
13 5 42
13 6 6
13 7 6
13 8 6
13 9 6
13 10 6
13 11 6
13 12 6
13 13 0
13 14 0
13 15 0
13 16 12
13 17 12
13 18 12
13 19 24
13 20 24
13 21 24
13 22 124
13 23 92
13 24 92
13 25 28
13 26 28
13 27 24
13 28 13
13 29 13
13 30 7
13 31 7
13 32 7
13 33 7
13 34 1
13 35 1
13 36 77
13 37 13
13 38 13
13 39 354
13 40 354
13 41 350
13 42 350
13 43 350
14 1 106
14 2 12
14 3 12
14 4 12
14 5 42
14 6 6
14 7 6
14 8 6
14 9 6
14 10 6
14 11 6
14 12 6
14 13 0
14 14 0
14 15 0
14 16 12
14 17 12
14 18 12
14 19 24
14 20 24
14 21 24
14 22 124
14 23 92
14 24 92
14 25 28
14 26 28
14 27 24
14 28 13
14 29 13
14 30 7
14 31 7
14 32 7
14 33 7
14 34 1
14 35 1
14 36 77
14 37 13
14 38 13
14 39 354
14 40 354
14 41 350
14 42 350
14 43 350
15 1 106
15 2 12
15 3 12
15 4 12
15 5 42
15 6 6
15 7 6
15 8 6
15 9 6
15 10 6
15 11 6
15 12 6
15 13 0
15 14 0
15 15 0
15 16 12
15 17 12
15 18 12
15 19 24
15 20 24
15 21 24
15 22 124
15 23 92
15 24 92
15 25 28
15 26 28
15 27 24
15 28 13
15 29 13
15 30 7
15 31 7
15 32 7
15 33 7
15 34 1
15 35 1
15 36 77
15 37 13
15 38 13
15 39 354
15 40 354
15 41 350
15 42 350
15 43 350
16 1 130
16 2 16
16 3 16
16 4 16
16 5 46
16 6 12
16 7 12
16 8 12
16 9 16
16 10 16
16 11 16
16 12 16
16 13 12
16 14 12
16 15 12
16 16 0
16 17 0
16 18 0
16 19 12
16 20 12
16 21 12
16 22 232
16 23 116
16 24 116
16 25 32
16 26 32
16 27 28
16 28 17
16 29 17
16 30 13
16 31 13
16 32 17
16 33 17
16 34 13
16 35 13
16 36 101
16 37 17
16 38 17
16 39 358
16 40 358
16 41 354
16 42 354
16 43 354
17 1 130
17 2 16
17 3 16
17 4 16
17 5 46
17 6 12
17 7 12
17 8 12
17 9 16
17 10 16
17 11 16
17 12 16
17 13 12
17 14 12
17 15 12
17 16 0
17 17 0
17 18 0
17 19 12
17 20 12
17 21 12
17 22 232
17 23 116
17 24 116
17 25 32
17 26 32
17 27 28
17 28 17
17 29 17
17 30 13
17 31 13
17 32 17
17 33 17
17 34 13
17 35 13
17 36 101
17 37 17
17 38 17
17 39 358
17 40 358
17 41 354
17 42 354
17 43 354
18 1 130
18 2 16
18 3 16
18 4 16
18 5 46
18 6 12
18 7 12
18 8 12
18 9 16
18 10 16
18 11 16
18 12 16
18 13 12
18 14 12
18 15 12
18 16 0
18 17 0
18 18 0
18 19 12
18 20 12
18 21 12
18 22 232
18 23 116
18 24 116
18 25 32
18 26 32
18 27 28
18 28 17
18 29 17
18 30 13
18 31 13
18 32 17
18 33 17
18 34 13
18 35 13
18 36 101
18 37 17
18 38 17
18 39 358
18 40 358
18 41 354
18 42 354
18 43 354
19 1 178
19 2 96
19 3 96
19 4 96
19 5 126
19 6 24
19 7 24
19 8 24
19 9 24
19 10 24
19 11 24
19 12 24
19 13 24
19 14 24
19 15 24
19 16 12
19 17 12
19 18 12
19 19 0
19 20 0
19 21 0
19 22 352
19 23 164
19 24 164
19 25 112
19 26 112
19 27 40
19 28 97
19 29 97
19 30 25
19 31 25
19 32 25
19 33 25
19 34 25
19 35 25
19 36 149
19 37 97
19 38 97
19 39 438
19 40 438
19 41 366
19 42 366
19 43 366
20 1 178
20 2 96
20 3 96
20 4 96
20 5 126
20 6 24
20 7 24
20 8 24
20 9 24
20 10 24
20 11 24
20 12 24
20 13 24
20 14 24
20 15 24
20 16 12
20 17 12
20 18 12
20 19 0
20 20 0
20 21 0
20 22 352
20 23 164
20 24 164
20 25 112
20 26 112
20 27 40
20 28 97
20 29 97
20 30 25
20 31 25
20 32 25
20 33 25
20 34 25
20 35 25
20 36 149
20 37 97
20 38 97
20 39 438
20 40 438
20 41 366
20 42 366
20 43 366
21 1 178
21 2 96
21 3 96
21 4 96
21 5 126
21 6 24
21 7 24
21 8 24
21 9 24
21 10 24
21 11 24
21 12 24
21 13 24
21 14 24
21 15 24
21 16 12
21 17 12
21 18 12
21 19 0
21 20 0
21 21 0
21 22 352
21 23 164
21 24 164
21 25 112
21 26 112
21 27 40
21 28 97
21 29 97
21 30 25
21 31 25
21 32 25
21 33 25
21 34 25
21 35 25
21 36 149
21 37 97
21 38 97
21 39 438
21 40 438
21 41 366
21 42 366
21 43 366
22 1 70
22 2 46
22 3 46
22 4 46
22 5 76
22 6 56
22 7 56
22 8 56
22 9 56
22 10 56
22 11 56
22 12 56
22 13 76
22 14 76
22 15 76
22 16 160
22 17 160
22 18 160
22 19 232
22 20 232
22 21 232
22 22 0
22 23 24
22 24 24
22 25 30
22 26 30
22 27 96
22 28 46
22 29 46
22 30 56
22 31 56
22 32 56
22 33 56
22 34 76
22 35 76
22 36 40
22 37 46
22 38 46
22 39 380
22 40 380
22 41 446
22 42 446
22 43 446
23 1 46
23 2 22
23 3 22
23 4 22
23 5 56
23 6 56
23 7 56
23 8 56
23 9 64
23 10 64
23 11 64
23 12 64
23 13 88
23 14 88
23 15 88
23 16 112
23 17 112
23 18 112
23 19 160
23 20 160
23 21 160
23 22 48
23 23 0
23 24 0
23 25 6
23 26 10
23 27 84
23 28 22
23 29 22
23 30 56
23 31 56
23 32 64
23 33 64
23 34 88
23 35 88
23 36 16
23 37 22
23 38 26
23 39 360
23 40 360
23 41 434
23 42 434
23 43 434
24 1 46
24 2 22
24 3 22
24 4 22
24 5 56
24 6 56
24 7 56
24 8 56
24 9 64
24 10 64
24 11 64
24 12 64
24 13 88
24 14 88
24 15 88
24 16 112
24 17 112
24 18 112
24 19 160
24 20 160
24 21 160
24 22 48
24 23 0
24 24 0
24 25 6
24 26 10
24 27 84
24 28 22
24 29 22
24 30 56
24 31 56
24 32 64
24 33 64
24 34 88
24 35 88
24 36 16
24 37 22
24 38 26
24 39 360
24 40 360
24 41 434
24 42 434
24 43 434
25 1 52
25 2 16
25 3 16
25 4 16
25 5 52
25 6 22
25 7 22
25 8 22
25 9 26
25 10 26
25 11 26
25 12 26
25 13 28
25 14 28
25 15 28
25 16 32
25 17 32
25 18 32
25 19 112
25 20 112
25 21 112
25 22 48
25 23 6
25 24 6
25 25 0
25 26 6
25 27 14
25 28 16
25 29 16
25 30 22
25 31 22
25 32 26
25 33 26
25 34 28
25 35 28
25 36 22
25 37 16
25 38 22
25 39 356
25 40 356
25 41 364
25 42 364
25 43 364
26 1 56
26 2 22
26 3 22
26 4 22
26 5 46
26 6 22
26 7 22
26 8 22
26 9 26
26 10 26
26 11 26
26 12 26
26 13 28
26 14 28
26 15 28
26 16 32
26 17 32
26 18 32
26 19 112
26 20 112
26 21 112
26 22 48
26 23 10
26 24 10
26 25 6
26 26 0
26 27 14
26 28 22
26 29 22
26 30 22
26 31 22
26 32 26
26 33 26
26 34 28
26 35 28
26 36 26
26 37 22
26 38 16
26 39 350
26 40 350
26 41 364
26 42 364
26 43 364
27 1 134
27 2 30
27 3 30
27 4 30
27 5 60
27 6 26
27 7 26
27 8 26
27 9 30
27 10 30
27 11 30
27 12 30
27 13 24
27 14 24
27 15 24
27 16 22
27 17 22
27 18 22
27 19 40
27 20 40
27 21 40
27 22 144
27 23 88
27 24 88
27 25 14
27 26 14
27 27 0
27 28 30
27 29 30
27 30 26
27 31 26
27 32 30
27 33 30
27 34 24
27 35 24
27 36 104
27 37 30
27 38 30
27 39 364
27 40 364
27 41 350
27 42 350
27 43 350
28 1 37
28 2 1
28 3 1
28 4 1
28 5 37
28 6 7
28 7 7
28 8 7
28 9 11
28 10 11
28 11 11
28 12 11
28 13 13
28 14 13
28 15 13
28 16 17
28 17 17
28 18 17
28 19 97
28 20 97
28 21 97
28 22 64
28 23 22
28 24 22
28 25 16
28 26 22
28 27 30
28 28 0
28 29 0
28 30 6
28 31 6
28 32 10
28 33 10
28 34 12
28 35 12
28 36 14
28 37 8
28 38 14
28 39 348
28 40 348
28 41 356
28 42 356
28 43 356
29 1 37
29 2 1
29 3 1
29 4 1
29 5 37
29 6 7
29 7 7
29 8 7
29 9 11
29 10 11
29 11 11
29 12 11
29 13 13
29 14 13
29 15 13
29 16 17
29 17 17
29 18 17
29 19 97
29 20 97
29 21 97
29 22 64
29 23 22
29 24 22
29 25 16
29 26 22
29 27 30
29 28 0
29 29 0
29 30 6
29 31 6
29 32 10
29 33 10
29 34 12
29 35 12
29 36 14
29 37 8
29 38 14
29 39 348
29 40 348
29 41 356
29 42 356
29 43 356
30 1 75
30 2 7
30 3 7
30 4 7
30 5 37
30 6 1
30 7 1
30 8 1
30 9 5
30 10 5
30 11 5
30 12 5
30 13 7
30 14 7
30 15 7
30 16 13
30 17 13
30 18 13
30 19 25
30 20 25
30 21 25
30 22 112
30 23 60
30 24 60
30 25 22
30 26 22
30 27 26
30 28 6
30 29 6
30 30 0
30 31 0
30 32 4
30 33 4
30 34 6
30 35 6
30 36 52
30 37 14
30 38 14
30 39 348
30 40 348
30 41 352
30 42 352
30 43 352
31 1 75
31 2 7
31 3 7
31 4 7
31 5 37
31 6 1
31 7 1
31 8 1
31 9 5
31 10 5
31 11 5
31 12 5
31 13 7
31 14 7
31 15 7
31 16 13
31 17 13
31 18 13
31 19 25
31 20 25
31 21 25
31 22 112
31 23 60
31 24 60
31 25 22
31 26 22
31 27 26
31 28 6
31 29 6
31 30 0
31 31 0
31 32 4
31 33 4
31 34 6
31 35 6
31 36 52
31 37 14
31 38 14
31 39 348
31 40 348
31 41 352
31 42 352
31 43 352
32 1 83
32 2 11
32 3 11
32 4 11
32 5 41
32 6 5
32 7 5
32 8 5
32 9 1
32 10 1
32 11 1
32 12 1
32 13 13
32 14 13
32 15 13
32 16 17
32 17 17
32 18 17
32 19 25
32 20 25
32 21 25
32 22 112
32 23 68
32 24 68
32 25 26
32 26 26
32 27 30
32 28 10
32 29 10
32 30 4
32 31 4
32 32 0
32 33 0
32 34 12
32 35 12
32 36 60
32 37 18
32 38 18
32 39 352
32 40 352
32 41 356
32 42 356
32 43 356
33 1 83
33 2 11
33 3 11
33 4 11
33 5 41
33 6 5
33 7 5
33 8 5
33 9 1
33 10 1
33 11 1
33 12 1
33 13 13
33 14 13
33 15 13
33 16 17
33 17 17
33 18 17
33 19 25
33 20 25
33 21 25
33 22 112
33 23 68
33 24 68
33 25 26
33 26 26
33 27 30
33 28 10
33 29 10
33 30 4
33 31 4
33 32 0
33 33 0
33 34 12
33 35 12
33 36 60
33 37 18
33 38 18
33 39 352
33 40 352
33 41 356
33 42 356
33 43 356
34 1 107
34 2 13
34 3 13
34 4 13
34 5 43
34 6 7
34 7 7
34 8 7
34 9 7
34 10 7
34 11 7
34 12 7
34 13 1
34 14 1
34 15 1
34 16 13
34 17 13
34 18 13
34 19 25
34 20 25
34 21 25
34 22 124
34 23 92
34 24 92
34 25 28
34 26 28
34 27 24
34 28 12
34 29 12
34 30 6
34 31 6
34 32 6
34 33 6
34 34 0
34 35 0
34 36 84
34 37 20
34 38 20
34 39 354
34 40 354
34 41 350
34 42 350
34 43 350
35 1 107
35 2 13
35 3 13
35 4 13
35 5 43
35 6 7
35 7 7
35 8 7
35 9 7
35 10 7
35 11 7
35 12 7
35 13 1
35 14 1
35 15 1
35 16 13
35 17 13
35 18 13
35 19 25
35 20 25
35 21 25
35 22 124
35 23 92
35 24 92
35 25 28
35 26 28
35 27 24
35 28 12
35 29 12
35 30 6
35 31 6
35 32 6
35 33 6
35 34 0
35 35 0
35 36 84
35 37 20
35 38 20
35 39 354
35 40 354
35 41 350
35 42 350
35 43 350
36 1 31
36 2 7
36 3 7
36 4 7
36 5 41
36 6 41
36 7 41
36 8 41
36 9 49
36 10 49
36 11 49
36 12 49
36 13 73
36 14 73
36 15 73
36 16 97
36 17 97
36 18 97
36 19 145
36 20 145
36 21 145
36 22 64
36 23 16
36 24 16
36 25 22
36 26 26
36 27 100
36 28 14
36 29 14
36 30 48
36 31 48
36 32 56
36 33 56
36 34 80
36 35 80
36 36 0
36 37 6
36 38 10
36 39 352
36 40 352
36 41 426
36 42 426
36 43 426
37 1 37
37 2 1
37 3 1
37 4 1
37 5 37
37 6 7
37 7 7
37 8 7
37 9 11
37 10 11
37 11 11
37 12 11
37 13 13
37 14 13
37 15 13
37 16 17
37 17 17
37 18 17
37 19 97
37 20 97
37 21 97
37 22 64
37 23 22
37 24 22
37 25 16
37 26 22
37 27 30
37 28 8
37 29 8
37 30 14
37 31 14
37 32 18
37 33 18
37 34 20
37 35 20
37 36 6
37 37 0
37 38 6
37 39 348
37 40 348
37 41 356
37 42 356
37 43 356
38 1 41
38 2 7
38 3 7
38 4 7
38 5 31
38 6 7
38 7 7
38 8 7
38 9 11
38 10 11
38 11 11
38 12 11
38 13 13
38 14 13
38 15 13
38 16 17
38 17 17
38 18 17
38 19 97
38 20 97
38 21 97
38 22 64
38 23 26
38 24 26
38 25 22
38 26 16
38 27 30
38 28 14
38 29 14
38 30 14
38 31 14
38 32 18
38 33 18
38 34 20
38 35 20
38 36 10
38 37 6
38 38 0
38 39 342
38 40 342
38 41 356
38 42 356
38 43 356
39 1 5048
39 2 5014
39 3 5014
39 4 5014
39 5 5038
39 6 5014
39 7 5014
39 8 5014
39 9 5018
39 10 5018
39 11 5018
39 12 5018
39 13 5020
39 14 5020
39 15 5020
39 16 5024
39 17 5024
39 18 5024
39 19 5104
39 20 5104
39 21 5104
39 22 5064
39 23 5026
39 24 5026
39 25 5022
39 26 5016
39 27 5030
39 28 5014
39 29 5014
39 30 5014
39 31 5014
39 32 5018
39 33 5018
39 34 5020
39 35 5020
39 36 5018
39 37 5014
39 38 5008
39 39 0
39 40 0
39 41 14
39 42 14
39 43 14
40 1 5048
40 2 5014
40 3 5014
40 4 5014
40 5 5038
40 6 5014
40 7 5014
40 8 5014
40 9 5018
40 10 5018
40 11 5018
40 12 5018
40 13 5020
40 14 5020
40 15 5020
40 16 5024
40 17 5024
40 18 5024
40 19 5104
40 20 5104
40 21 5104
40 22 5064
40 23 5026
40 24 5026
40 25 5022
40 26 5016
40 27 5030
40 28 5014
40 29 5014
40 30 5014
40 31 5014
40 32 5018
40 33 5018
40 34 5020
40 35 5020
40 36 5018
40 37 5014
40 38 5008
40 39 0
40 40 0
40 41 14
40 42 14
40 43 14
41 1 5126
41 2 5022
41 3 5022
41 4 5022
41 5 5052
41 6 5018
41 7 5018
41 8 5018
41 9 5022
41 10 5022
41 11 5022
41 12 5022
41 13 5016
41 14 5016
41 15 5016
41 16 5014
41 17 5014
41 18 5014
41 19 5032
41 20 5032
41 21 5032
41 22 5160
41 23 5104
41 24 5104
41 25 5030
41 26 5030
41 27 5016
41 28 5022
41 29 5022
41 30 5018
41 31 5018
41 32 5022
41 33 5022
41 34 5016
41 35 5016
41 36 5096
41 37 5022
41 38 5022
41 39 14
41 40 14
41 41 0
41 42 0
41 43 0
42 1 5126
42 2 5022
42 3 5022
42 4 5022
42 5 5052
42 6 5018
42 7 5018
42 8 5018
42 9 5022
42 10 5022
42 11 5022
42 12 5022
42 13 5016
42 14 5016
42 15 5016
42 16 5014
42 17 5014
42 18 5014
42 19 5032
42 20 5032
42 21 5032
42 22 5160
42 23 5104
42 24 5104
42 25 5030
42 26 5030
42 27 5016
42 28 5022
42 29 5022
42 30 5018
42 31 5018
42 32 5022
42 33 5022
42 34 5016
42 35 5016
42 36 5096
42 37 5022
42 38 5022
42 39 14
42 40 14
42 41 0
42 42 0
42 43 0
43 1 5126
43 2 5022
43 3 5022
43 4 5022
43 5 5052
43 6 5018
43 7 5018
43 8 5018
43 9 5022
43 10 5022
43 11 5022
43 12 5022
43 13 5016
43 14 5016
43 15 5016
43 16 5014
43 17 5014
43 18 5014
43 19 5032
43 20 5032
43 21 5032
43 22 5160
43 23 5104
43 24 5104
43 25 5030
43 26 5030
43 27 5016
43 28 5022
43 29 5022
43 30 5018
43 31 5018
43 32 5022
43 33 5022
43 34 5016
43 35 5016
43 36 5096
43 37 5022
43 38 5022
43 39 14
43 40 14
43 41 0
43 42 0
43 43 0
